NAME : tsp_221_sol.txt
COMMENT : OR-Tools Guided Local Search
TYPE : TOUR
DIMENSION : 50
COST : 5882
STATUS : ROUTING_SUCCESS
GAP : 0.00% (Reference Solution)
TOUR_SECTION
1
39
30
34
25
46
43
44
21
32
40
12
14
9
28
2
47
49
37
31
41
13
42
5
38
24
17
7
29
16
33
23
6
8
3
19
22
4
35
18
36
15
45
48
50
11
27
20
26
10
-1
